;; translated from ./ctigar/svd2.c.vmt
;; original benchmark available at: https://es-static.fbk.eu/people/griggio/ic3ia/index.html
;; author: Alberto Griggio <griggio@fbk.eu>
(set-logic HORN)
(declare-fun state (Bool Bool Bool Bool Bool Bool Int Int Int Int Int) Bool)
(assert (forall ((|.s.3| Bool) (|.s.4| Bool) (|.s.2| Bool) (|.s.0| Bool) (|.s.1| Bool) (|.s.0.next| Bool) (|.s.1.next| Bool) (|.s.2.next| Bool) (|.s.3.next| Bool) (|.s.4.next| Bool) (|.s.5.next| Bool) (|main.i.next| Int) (|main.i| Int) (|main.j.next| Int) (|main.j| Int) (|main.k.next| Int) (|main.k| Int) (|main.l.next| Int) (|main.l| Int) (|n.next| Int) (|n| Int) (|.inputVar.0| Int) (|.s.5| Bool)) (=> (let ((.def_23 (not .s.5)))
(let ((.def_20 (not .s.4)))
(let ((.def_17 (not .s.3)))
(let ((.def_14 (not .s.2)))
(let ((.def_10 (not .s.1)))
(let ((.def_12 (and .def_10 .s.0)))
(let ((.def_15 (and .def_12 .def_14)))
(let ((.def_18 (and .def_15 .def_17)))
(let ((.def_21 (and .def_18 .def_20)))
(let ((.def_24 (and .def_21 .def_23)))
.def_24)))))))))) (state |.s.1| |.s.0| |.s.2| |.s.3| |.s.4| |.s.5| |n| |main.l| |main.k| |main.j| |main.i|))))
(assert (forall ((|.s.3| Bool) (|.s.4| Bool) (|.s.2| Bool) (|.s.0| Bool) (|.s.1| Bool) (|.s.0.next| Bool) (|.s.1.next| Bool) (|.s.2.next| Bool) (|.s.3.next| Bool) (|.s.4.next| Bool) (|.s.5.next| Bool) (|main.i.next| Int) (|main.i| Int) (|main.j.next| Int) (|main.j| Int) (|main.k.next| Int) (|main.k| Int) (|main.l.next| Int) (|main.l| Int) (|n.next| Int) (|n| Int) (|.inputVar.0| Int) (|.s.5| Bool)) (=> (and (state |.s.1| |.s.0| |.s.2| |.s.3| |.s.4| |.s.5| |n| |main.l| |main.k| |main.j| |main.i|) (let ((.def_25 (not .s.0)))
(let ((.def_10 (not .s.1)))
(let ((.def_85 (and .def_10 .def_25)))
(let ((.def_14 (not .s.2)))
(let ((.def_149 (and .def_14 .def_85)))
(let ((.def_17 (not .s.3)))
(let ((.def_150 (and .def_17 .def_149)))
(let ((.def_20 (not .s.4)))
(let ((.def_151 (and .def_20 .def_150)))
(let ((.def_23 (not .s.5)))
(let ((.def_615 (and .def_23 .def_151)))
(let ((.def_616 (not .def_615)))
(let ((.def_58 (not .s.0.next)))
(let ((.def_56 (not .s.1.next)))
(let ((.def_59 (and .def_56 .def_58)))
(let ((.def_54 (not .s.2.next)))
(let ((.def_60 (and .def_54 .def_59)))
(let ((.def_52 (not .s.3.next)))
(let ((.def_61 (and .def_52 .def_60)))
(let ((.def_50 (not .s.4.next)))
(let ((.def_62 (and .def_50 .def_61)))
(let ((.def_48 (not .s.5.next)))
(let ((.def_63 (and .def_48 .def_62)))
(let ((.def_46 (= main.i main.i.next)))
(let ((.def_64 (and .def_46 .def_63)))
(let ((.def_43 (= main.j main.j.next)))
(let ((.def_65 (and .def_43 .def_64)))
(let ((.def_40 (= main.k main.k.next)))
(let ((.def_66 (and .def_40 .def_65)))
(let ((.def_37 (= main.l main.l.next)))
(let ((.def_67 (and .def_37 .def_66)))
(let ((.def_34 (= n n.next)))
(let ((.def_68 (and .def_34 .def_67)))
(let ((.def_617 (or .def_68 .def_616)))
(let ((.def_184 (and .s.1.next .def_58)))
(let ((.def_185 (and .def_54 .def_184)))
(let ((.def_186 (and .def_52 .def_185)))
(let ((.def_187 (and .def_50 .def_186)))
(let ((.def_608 (and .def_48 .def_187)))
(let ((.def_609 (and .def_46 .def_608)))
(let ((.def_610 (and .def_43 .def_609)))
(let ((.def_611 (and .def_40 .def_610)))
(let ((.def_612 (and .def_37 .def_611)))
(let ((.def_613 (and .def_34 .def_612)))
(let ((.def_595 (<= main.l 0)))
(let ((.def_12 (and .def_10 .s.0)))
(let ((.def_15 (and .def_12 .def_14)))
(let ((.def_18 (and .def_15 .def_17)))
(let ((.def_21 (and .def_18 .def_20)))
(let ((.def_24 (and .def_21 .def_23)))
(let ((.def_606 (and .def_24 .def_595)))
(let ((.def_607 (not .def_606)))
(let ((.def_614 (or .def_607 .def_613)))
(let ((.def_618 (and .def_614 .def_617)))
(let ((.def_126 (and .s.1.next .s.0.next)))
(let ((.def_127 (and .def_54 .def_126)))
(let ((.def_128 (and .def_52 .def_127)))
(let ((.def_129 (and .def_50 .def_128)))
(let ((.def_599 (and .def_48 .def_129)))
(let ((.def_600 (and .def_46 .def_599)))
(let ((.def_601 (and .def_43 .def_600)))
(let ((.def_602 (and .def_40 .def_601)))
(let ((.def_603 (and .def_37 .def_602)))
(let ((.def_604 (and .def_34 .def_603)))
(let ((.def_596 (not .def_595)))
(let ((.def_597 (and .def_24 .def_596)))
(let ((.def_598 (not .def_597)))
(let ((.def_605 (or .def_598 .def_604)))
(let ((.def_619 (and .def_605 .def_618)))
(let ((.def_26 (and .s.1 .def_25)))
(let ((.def_121 (and .def_14 .def_26)))
(let ((.def_122 (and .def_17 .def_121)))
(let ((.def_123 (and .def_20 .def_122)))
(let ((.def_592 (and .def_23 .def_123)))
(let ((.def_593 (not .def_592)))
(let ((.def_594 (or .def_68 .def_593)))
(let ((.def_620 (and .def_594 .def_619)))
(let ((.def_585 (= n main.i.next)))
(let ((.def_75 (and .s.2.next .def_59)))
(let ((.def_76 (and .def_52 .def_75)))
(let ((.def_77 (and .def_50 .def_76)))
(let ((.def_78 (and .def_48 .def_77)))
(let ((.def_586 (and .def_78 .def_585)))
(let ((.def_587 (and .def_43 .def_586)))
(let ((.def_588 (and .def_40 .def_587)))
(let ((.def_589 (and .def_37 .def_588)))
(let ((.def_590 (and .def_34 .def_589)))
(let ((.def_107 (and .s.1 .s.0)))
(let ((.def_108 (and .def_14 .def_107)))
(let ((.def_109 (and .def_17 .def_108)))
(let ((.def_110 (and .def_20 .def_109)))
(let ((.def_583 (and .def_23 .def_110)))
(let ((.def_584 (not .def_583)))
(let ((.def_591 (or .def_584 .def_590)))
(let ((.def_621 (and .def_591 .def_620)))
(let ((.def_96 (and .def_56 .s.0.next)))
(let ((.def_97 (and .s.2.next .def_96)))
(let ((.def_98 (and .def_52 .def_97)))
(let ((.def_99 (and .def_50 .def_98)))
(let ((.def_576 (and .def_48 .def_99)))
(let ((.def_577 (and .def_46 .def_576)))
(let ((.def_578 (and .def_43 .def_577)))
(let ((.def_579 (and .def_40 .def_578)))
(let ((.def_580 (and .def_37 .def_579)))
(let ((.def_581 (and .def_34 .def_580)))
(let ((.def_86 (and .s.2 .def_85)))
(let ((.def_87 (and .def_17 .def_86)))
(let ((.def_88 (and .def_20 .def_87)))
(let ((.def_564 (and .def_23 .def_88)))
(let ((.def_342 (<= 1 main.i)))
(let ((.def_574 (and .def_342 .def_564)))
(let ((.def_575 (not .def_574)))
(let ((.def_582 (or .def_575 .def_581)))
(let ((.def_622 (and .def_582 .def_621)))
(let ((.def_210 (and .s.2.next .def_184)))
(let ((.def_320 (and .def_52 .def_210)))
(let ((.def_553 (and .def_50 .def_320)))
(let ((.def_567 (and .s.5.next .def_553)))
(let ((.def_568 (and .def_46 .def_567)))
(let ((.def_569 (and .def_43 .def_568)))
(let ((.def_570 (and .def_40 .def_569)))
(let ((.def_571 (and .def_37 .def_570)))
(let ((.def_572 (and .def_34 .def_571)))
(let ((.def_343 (not .def_342)))
(let ((.def_565 (and .def_343 .def_564)))
(let ((.def_566 (not .def_565)))
(let ((.def_573 (or .def_566 .def_572)))
(let ((.def_623 (and .def_573 .def_622)))
(let ((.def_549 (<= n main.i)))
(let ((.def_70 (and .def_12 .s.2)))
(let ((.def_71 (and .def_17 .def_70)))
(let ((.def_72 (and .def_20 .def_71)))
(let ((.def_548 (and .def_23 .def_72)))
(let ((.def_561 (and .def_548 .def_549)))
(let ((.def_562 (not .def_561)))
(let ((.def_130 (and .s.5.next .def_129)))
(let ((.def_131 (and .def_46 .def_130)))
(let ((.def_132 (and .def_43 .def_131)))
(let ((.def_133 (and .def_40 .def_132)))
(let ((.def_134 (and .def_37 .def_133)))
(let ((.def_135 (and .def_34 .def_134)))
(let ((.def_563 (or .def_135 .def_562)))
(let ((.def_624 (and .def_563 .def_623)))
(let ((.def_554 (and .def_48 .def_553)))
(let ((.def_555 (and .def_46 .def_554)))
(let ((.def_556 (and .def_43 .def_555)))
(let ((.def_557 (and .def_40 .def_556)))
(let ((.def_558 (and .def_37 .def_557)))
(let ((.def_559 (and .def_34 .def_558)))
(let ((.def_550 (not .def_549)))
(let ((.def_551 (and .def_548 .def_550)))
(let ((.def_552 (not .def_551)))
(let ((.def_560 (or .def_552 .def_559)))
(let ((.def_625 (and .def_560 .def_624)))
(let ((.def_139 (and .s.2.next .def_126)))
(let ((.def_302 (and .def_52 .def_139)))
(let ((.def_540 (and .def_50 .def_302)))
(let ((.def_541 (and .def_48 .def_540)))
(let ((.def_542 (and .def_46 .def_541)))
(let ((.def_543 (and .def_43 .def_542)))
(let ((.def_544 (and .def_40 .def_543)))
(let ((.def_545 (and .def_37 .def_544)))
(let ((.def_546 (and .def_34 .def_545)))
(let ((.def_533 (= .inputVar.0 0)))
(let ((.def_27 (and .s.2 .def_26)))
(let ((.def_28 (and .def_17 .def_27)))
(let ((.def_29 (and .def_20 .def_28)))
(let ((.def_530 (and .def_23 .def_29)))
(let ((.def_538 (and .def_530 .def_533)))
(let ((.def_539 (not .def_538)))
(let ((.def_547 (or .def_539 .def_546)))
(let ((.def_626 (and .def_547 .def_625)))
(let ((.def_534 (not .def_533)))
(let ((.def_535 (and .def_530 .def_534)))
(let ((.def_536 (not .def_535)))
(let ((.def_211 (and .s.3.next .def_210)))
(let ((.def_212 (and .s.4.next .def_211)))
(let ((.def_213 (and .def_48 .def_212)))
(let ((.def_214 (and .def_46 .def_213)))
(let ((.def_215 (and .def_43 .def_214)))
(let ((.def_216 (and .def_40 .def_215)))
(let ((.def_217 (and .def_37 .def_216)))
(let ((.def_218 (and .def_34 .def_217)))
(let ((.def_537 (or .def_218 .def_536)))
(let ((.def_627 (and .def_537 .def_626)))
(let ((.def_287 (and .s.3.next .def_60)))
(let ((.def_480 (and .def_50 .def_287)))
(let ((.def_481 (and .def_48 .def_480)))
(let ((.def_199 (= main.l main.j.next)))
(let ((.def_524 (and .def_199 .def_481)))
(let ((.def_525 (and .def_46 .def_524)))
(let ((.def_526 (and .def_40 .def_525)))
(let ((.def_527 (and .def_37 .def_526)))
(let ((.def_528 (and .def_34 .def_527)))
(let ((.def_167 (and .s.2 .def_107)))
(let ((.def_283 (and .def_17 .def_167)))
(let ((.def_521 (and .def_20 .def_283)))
(let ((.def_522 (and .def_23 .def_521)))
(let ((.def_523 (not .def_522)))
(let ((.def_529 (or .def_523 .def_528)))
(let ((.def_628 (and .def_529 .def_627)))
(let ((.def_373 (and .s.3.next .def_127)))
(let ((.def_513 (and .def_50 .def_373)))
(let ((.def_514 (and .def_48 .def_513)))
(let ((.def_515 (and .def_46 .def_514)))
(let ((.def_516 (and .def_43 .def_515)))
(let ((.def_517 (and .def_40 .def_516)))
(let ((.def_518 (and .def_37 .def_517)))
(let ((.def_519 (and .def_34 .def_518)))
(let ((.def_271 (and .s.3 .def_149)))
(let ((.def_499 (and .def_20 .def_271)))
(let ((.def_500 (and .def_23 .def_499)))
(let ((.def_171 (<= main.j n)))
(let ((.def_181 (not .def_171)))
(let ((.def_511 (and .def_181 .def_500)))
(let ((.def_512 (not .def_511)))
(let ((.def_520 (or .def_512 .def_519)))
(let ((.def_629 (and .def_520 .def_628)))
(let ((.def_154 (and .def_54 .def_96)))
(let ((.def_262 (and .s.3.next .def_154)))
(let ((.def_503 (and .def_50 .def_262)))
(let ((.def_504 (and .def_48 .def_503)))
(let ((.def_505 (and .def_46 .def_504)))
(let ((.def_506 (and .def_43 .def_505)))
(let ((.def_507 (and .def_40 .def_506)))
(let ((.def_508 (and .def_37 .def_507)))
(let ((.def_509 (and .def_34 .def_508)))
(let ((.def_501 (and .def_171 .def_500)))
(let ((.def_502 (not .def_501)))
(let ((.def_510 (or .def_502 .def_509)))
(let ((.def_630 (and .def_510 .def_629)))
(let ((.def_249 (and .s.3.next .def_185)))
(let ((.def_491 (and .def_50 .def_249)))
(let ((.def_492 (and .def_48 .def_491)))
(let ((.def_158 (* (- 1) main.j.next)))
(let ((.def_159 (+ main.j .def_158)))
(let ((.def_160 (= .def_159 (- 1))))
(let ((.def_493 (and .def_160 .def_492)))
(let ((.def_494 (and .def_46 .def_493)))
(let ((.def_495 (and .def_40 .def_494)))
(let ((.def_496 (and .def_37 .def_495)))
(let ((.def_497 (and .def_34 .def_496)))
(let ((.def_258 (and .def_15 .s.3)))
(let ((.def_488 (and .def_20 .def_258)))
(let ((.def_489 (and .def_23 .def_488)))
(let ((.def_490 (not .def_489)))
(let ((.def_498 (or .def_490 .def_497)))
(let ((.def_631 (and .def_498 .def_630)))
(let ((.def_482 (and .def_46 .def_481)))
(let ((.def_483 (and .def_43 .def_482)))
(let ((.def_484 (and .def_40 .def_483)))
(let ((.def_485 (and .def_37 .def_484)))
(let ((.def_486 (and .def_34 .def_485)))
(let ((.def_245 (and .s.3 .def_121)))
(let ((.def_477 (and .def_20 .def_245)))
(let ((.def_478 (and .def_23 .def_477)))
(let ((.def_479 (not .def_478)))
(let ((.def_487 (or .def_479 .def_486)))
(let ((.def_632 (and .def_487 .def_631)))
(let ((.def_224 (and .s.3.next .def_75)))
(let ((.def_225 (and .def_50 .def_224)))
(let ((.def_226 (and .def_48 .def_225)))
(let ((.def_471 (and .def_199 .def_226)))
(let ((.def_472 (and .def_46 .def_471)))
(let ((.def_473 (and .def_40 .def_472)))
(let ((.def_474 (and .def_37 .def_473)))
(let ((.def_475 (and .def_34 .def_474)))
(let ((.def_233 (and .s.3 .def_108)))
(let ((.def_468 (and .def_20 .def_233)))
(let ((.def_469 (and .def_23 .def_468)))
(let ((.def_470 (not .def_469)))
(let ((.def_476 (or .def_470 .def_475)))
(let ((.def_633 (and .def_476 .def_632)))
(let ((.def_449 (and .s.3.next .def_97)))
(let ((.def_460 (and .s.4.next .def_449)))
(let ((.def_461 (and .def_48 .def_460)))
(let ((.def_462 (and .def_46 .def_461)))
(let ((.def_463 (and .def_43 .def_462)))
(let ((.def_464 (and .def_40 .def_463)))
(let ((.def_465 (and .def_37 .def_464)))
(let ((.def_466 (and .def_34 .def_465)))
(let ((.def_220 (and .s.3 .def_86)))
(let ((.def_445 (and .def_20 .def_220)))
(let ((.def_446 (and .def_23 .def_445)))
(let ((.def_458 (and .def_181 .def_446)))
(let ((.def_459 (not .def_458)))
(let ((.def_467 (or .def_459 .def_466)))
(let ((.def_634 (and .def_467 .def_633)))
(let ((.def_450 (and .def_50 .def_449)))
(let ((.def_451 (and .def_48 .def_450)))
(let ((.def_452 (and .def_46 .def_451)))
(let ((.def_453 (and .def_43 .def_452)))
(let ((.def_454 (and .def_40 .def_453)))
(let ((.def_455 (and .def_37 .def_454)))
(let ((.def_456 (and .def_34 .def_455)))
(let ((.def_447 (and .def_171 .def_446)))
(let ((.def_448 (not .def_447)))
(let ((.def_457 (or .def_448 .def_456)))
(let ((.def_635 (and .def_457 .def_634)))
(let ((.def_395 (and .def_50 .def_211)))
(let ((.def_396 (and .def_48 .def_395)))
(let ((.def_385 (= main.l main.k.next)))
(let ((.def_439 (and .def_385 .def_396)))
(let ((.def_440 (and .def_46 .def_439)))
(let ((.def_441 (and .def_43 .def_440)))
(let ((.def_442 (and .def_37 .def_441)))
(let ((.def_443 (and .def_34 .def_442)))
(let ((.def_206 (and .s.3 .def_70)))
(let ((.def_436 (and .def_20 .def_206)))
(let ((.def_437 (and .def_23 .def_436)))
(let ((.def_438 (not .def_437)))
(let ((.def_444 (or .def_438 .def_443)))
(let ((.def_636 (and .def_444 .def_635)))
(let ((.def_155 (and .def_52 .def_154)))
(let ((.def_428 (and .s.4.next .def_155)))
(let ((.def_429 (and .def_48 .def_428)))
(let ((.def_430 (and .def_46 .def_429)))
(let ((.def_431 (and .def_43 .def_430)))
(let ((.def_432 (and .def_40 .def_431)))
(let ((.def_433 (and .def_37 .def_432)))
(let ((.def_434 (and .def_34 .def_433)))
(let ((.def_195 (and .s.3 .def_27)))
(let ((.def_414 (and .def_20 .def_195)))
(let ((.def_415 (and .def_23 .def_414)))
(let ((.def_359 (<= main.k n)))
(let ((.def_370 (not .def_359)))
(let ((.def_426 (and .def_370 .def_415)))
(let ((.def_427 (not .def_426)))
(let ((.def_435 (or .def_427 .def_434)))
(let ((.def_637 (and .def_435 .def_636)))
(let ((.def_140 (and .s.3.next .def_139)))
(let ((.def_418 (and .def_50 .def_140)))
(let ((.def_419 (and .def_48 .def_418)))
(let ((.def_420 (and .def_46 .def_419)))
(let ((.def_421 (and .def_43 .def_420)))
(let ((.def_422 (and .def_40 .def_421)))
(let ((.def_423 (and .def_37 .def_422)))
(let ((.def_424 (and .def_34 .def_423)))
(let ((.def_416 (and .def_359 .def_415)))
(let ((.def_417 (not .def_416)))
(let ((.def_425 (or .def_417 .def_424)))
(let ((.def_638 (and .def_425 .def_637)))
(let ((.def_406 (and .s.4.next .def_61)))
(let ((.def_407 (and .def_48 .def_406)))
(let ((.def_290 (* (- 1) main.k.next)))
(let ((.def_291 (+ main.k .def_290)))
(let ((.def_292 (= .def_291 (- 1))))
(let ((.def_408 (and .def_292 .def_407)))
(let ((.def_409 (and .def_46 .def_408)))
(let ((.def_410 (and .def_43 .def_409)))
(let ((.def_411 (and .def_37 .def_410)))
(let ((.def_412 (and .def_34 .def_411)))
(let ((.def_168 (and .s.3 .def_167)))
(let ((.def_403 (and .def_20 .def_168)))
(let ((.def_404 (and .def_23 .def_403)))
(let ((.def_405 (not .def_404)))
(let ((.def_413 (or .def_405 .def_412)))
(let ((.def_639 (and .def_413 .def_638)))
(let ((.def_397 (and .def_46 .def_396)))
(let ((.def_398 (and .def_43 .def_397)))
(let ((.def_399 (and .def_40 .def_398)))
(let ((.def_400 (and .def_37 .def_399)))
(let ((.def_401 (and .def_34 .def_400)))
(let ((.def_392 (and .s.4 .def_150)))
(let ((.def_393 (and .def_23 .def_392)))
(let ((.def_394 (not .def_393)))
(let ((.def_402 (or .def_394 .def_401)))
(let ((.def_640 (and .def_402 .def_639)))
(let ((.def_275 (and .s.4.next .def_186)))
(let ((.def_276 (and .def_48 .def_275)))
(let ((.def_386 (and .def_276 .def_385)))
(let ((.def_387 (and .def_46 .def_386)))
(let ((.def_388 (and .def_43 .def_387)))
(let ((.def_389 (and .def_37 .def_388)))
(let ((.def_390 (and .def_34 .def_389)))
(let ((.def_382 (and .def_18 .s.4)))
(let ((.def_383 (and .def_23 .def_382)))
(let ((.def_384 (not .def_383)))
(let ((.def_391 (or .def_384 .def_390)))
(let ((.def_641 (and .def_391 .def_640)))
(let ((.def_374 (and .s.4.next .def_373)))
(let ((.def_375 (and .def_48 .def_374)))
(let ((.def_376 (and .def_46 .def_375)))
(let ((.def_377 (and .def_43 .def_376)))
(let ((.def_378 (and .def_40 .def_377)))
(let ((.def_379 (and .def_37 .def_378)))
(let ((.def_380 (and .def_34 .def_379)))
(let ((.def_357 (and .s.4 .def_122)))
(let ((.def_358 (and .def_23 .def_357)))
(let ((.def_371 (and .def_358 .def_370)))
(let ((.def_372 (not .def_371)))
(let ((.def_381 (or .def_372 .def_380)))
(let ((.def_642 (and .def_381 .def_641)))
(let ((.def_362 (and .s.4.next .def_128)))
(let ((.def_363 (and .def_48 .def_362)))
(let ((.def_364 (and .def_46 .def_363)))
(let ((.def_365 (and .def_43 .def_364)))
(let ((.def_366 (and .def_40 .def_365)))
(let ((.def_367 (and .def_37 .def_366)))
(let ((.def_368 (and .def_34 .def_367)))
(let ((.def_360 (and .def_358 .def_359)))
(let ((.def_361 (not .def_360)))
(let ((.def_369 (or .def_361 .def_368)))
(let ((.def_643 (and .def_369 .def_642)))
(let ((.def_349 (and .s.4.next .def_76)))
(let ((.def_350 (and .def_48 .def_349)))
(let ((.def_351 (and .def_46 .def_350)))
(let ((.def_352 (and .def_43 .def_351)))
(let ((.def_353 (and .def_40 .def_352)))
(let ((.def_354 (and .def_37 .def_353)))
(let ((.def_355 (and .def_34 .def_354)))
(let ((.def_340 (and .s.4 .def_109)))
(let ((.def_341 (and .def_23 .def_340)))
(let ((.def_347 (and .def_341 .def_342)))
(let ((.def_348 (not .def_347)))
(let ((.def_356 (or .def_348 .def_355)))
(let ((.def_644 (and .def_356 .def_643)))
(let ((.def_344 (and .def_341 .def_343)))
(let ((.def_345 (not .def_344)))
(let ((.def_250 (and .s.4.next .def_249)))
(let ((.def_251 (and .def_48 .def_250)))
(let ((.def_252 (and .def_46 .def_251)))
(let ((.def_253 (and .def_43 .def_252)))
(let ((.def_254 (and .def_40 .def_253)))
(let ((.def_255 (and .def_37 .def_254)))
(let ((.def_256 (and .def_34 .def_255)))
(let ((.def_346 (or .def_256 .def_345)))
(let ((.def_645 (and .def_346 .def_644)))
(let ((.def_332 (and .s.4.next .def_98)))
(let ((.def_333 (and .def_48 .def_332)))
(let ((.def_334 (and .def_46 .def_333)))
(let ((.def_335 (and .def_43 .def_334)))
(let ((.def_336 (and .def_40 .def_335)))
(let ((.def_337 (and .def_37 .def_336)))
(let ((.def_338 (and .def_34 .def_337)))
(let ((.def_329 (and .s.4 .def_87)))
(let ((.def_330 (and .def_23 .def_329)))
(let ((.def_331 (not .def_330)))
(let ((.def_339 (or .def_331 .def_338)))
(let ((.def_646 (and .def_339 .def_645)))
(let ((.def_321 (and .s.4.next .def_320)))
(let ((.def_322 (and .def_48 .def_321)))
(let ((.def_323 (and .def_46 .def_322)))
(let ((.def_324 (and .def_43 .def_323)))
(let ((.def_325 (and .def_40 .def_324)))
(let ((.def_326 (and .def_37 .def_325)))
(let ((.def_327 (and .def_34 .def_326)))
(let ((.def_313 (<= main.i n)))
(let ((.def_311 (and .s.4 .def_71)))
(let ((.def_312 (and .def_23 .def_311)))
(let ((.def_318 (and .def_312 .def_313)))
(let ((.def_319 (not .def_318)))
(let ((.def_328 (or .def_319 .def_327)))
(let ((.def_647 (and .def_328 .def_646)))
(let ((.def_314 (not .def_313)))
(let ((.def_315 (and .def_312 .def_314)))
(let ((.def_316 (not .def_315)))
(let ((.def_263 (and .s.4.next .def_262)))
(let ((.def_264 (and .def_48 .def_263)))
(let ((.def_265 (and .def_46 .def_264)))
(let ((.def_266 (and .def_43 .def_265)))
(let ((.def_267 (and .def_40 .def_266)))
(let ((.def_268 (and .def_37 .def_267)))
(let ((.def_269 (and .def_34 .def_268)))
(let ((.def_317 (or .def_269 .def_316)))
(let ((.def_648 (and .def_317 .def_647)))
(let ((.def_303 (and .s.4.next .def_302)))
(let ((.def_304 (and .def_48 .def_303)))
(let ((.def_305 (and .def_46 .def_304)))
(let ((.def_306 (and .def_43 .def_305)))
(let ((.def_307 (and .def_40 .def_306)))
(let ((.def_308 (and .def_37 .def_307)))
(let ((.def_309 (and .def_34 .def_308)))
(let ((.def_299 (and .s.4 .def_28)))
(let ((.def_300 (and .def_23 .def_299)))
(let ((.def_301 (not .def_300)))
(let ((.def_310 (or .def_301 .def_309)))
(let ((.def_649 (and .def_310 .def_648)))
(let ((.def_288 (and .s.4.next .def_287)))
(let ((.def_289 (and .def_48 .def_288)))
(let ((.def_293 (and .def_289 .def_292)))
(let ((.def_294 (and .def_46 .def_293)))
(let ((.def_295 (and .def_43 .def_294)))
(let ((.def_296 (and .def_37 .def_295)))
(let ((.def_297 (and .def_34 .def_296)))
(let ((.def_284 (and .s.4 .def_283)))
(let ((.def_285 (and .def_23 .def_284)))
(let ((.def_286 (not .def_285)))
(let ((.def_298 (or .def_286 .def_297)))
(let ((.def_650 (and .def_298 .def_649)))
(let ((.def_277 (and .def_46 .def_276)))
(let ((.def_278 (and .def_43 .def_277)))
(let ((.def_279 (and .def_40 .def_278)))
(let ((.def_280 (and .def_37 .def_279)))
(let ((.def_281 (and .def_34 .def_280)))
(let ((.def_272 (and .s.4 .def_271)))
(let ((.def_273 (and .def_23 .def_272)))
(let ((.def_274 (not .def_273)))
(let ((.def_282 (or .def_274 .def_281)))
(let ((.def_651 (and .def_282 .def_650)))
(let ((.def_259 (and .s.4 .def_258)))
(let ((.def_260 (and .def_23 .def_259)))
(let ((.def_261 (not .def_260)))
(let ((.def_270 (or .def_261 .def_269)))
(let ((.def_652 (and .def_270 .def_651)))
(let ((.def_246 (and .s.4 .def_245)))
(let ((.def_247 (and .def_23 .def_246)))
(let ((.def_248 (not .def_247)))
(let ((.def_257 (or .def_248 .def_256)))
(let ((.def_653 (and .def_257 .def_652)))
(let ((.def_237 (and .s.4.next .def_224)))
(let ((.def_238 (and .def_48 .def_237)))
(let ((.def_239 (and .def_160 .def_238)))
(let ((.def_240 (and .def_46 .def_239)))
(let ((.def_241 (and .def_40 .def_240)))
(let ((.def_242 (and .def_37 .def_241)))
(let ((.def_243 (and .def_34 .def_242)))
(let ((.def_234 (and .s.4 .def_233)))
(let ((.def_235 (and .def_23 .def_234)))
(let ((.def_236 (not .def_235)))
(let ((.def_244 (or .def_236 .def_243)))
(let ((.def_654 (and .def_244 .def_653)))
(let ((.def_227 (and .def_46 .def_226)))
(let ((.def_228 (and .def_43 .def_227)))
(let ((.def_229 (and .def_40 .def_228)))
(let ((.def_230 (and .def_37 .def_229)))
(let ((.def_231 (and .def_34 .def_230)))
(let ((.def_221 (and .s.4 .def_220)))
(let ((.def_222 (and .def_23 .def_221)))
(let ((.def_223 (not .def_222)))
(let ((.def_232 (or .def_223 .def_231)))
(let ((.def_655 (and .def_232 .def_654)))
(let ((.def_207 (and .s.4 .def_206)))
(let ((.def_208 (and .def_23 .def_207)))
(let ((.def_209 (not .def_208)))
(let ((.def_219 (or .def_209 .def_218)))
(let ((.def_656 (and .def_219 .def_655)))
(let ((.def_141 (and .s.4.next .def_140)))
(let ((.def_142 (and .def_48 .def_141)))
(let ((.def_200 (and .def_142 .def_199)))
(let ((.def_201 (and .def_46 .def_200)))
(let ((.def_202 (and .def_40 .def_201)))
(let ((.def_203 (and .def_37 .def_202)))
(let ((.def_204 (and .def_34 .def_203)))
(let ((.def_196 (and .s.4 .def_195)))
(let ((.def_197 (and .def_23 .def_196)))
(let ((.def_198 (not .def_197)))
(let ((.def_205 (or .def_198 .def_204)))
(let ((.def_657 (and .def_205 .def_656)))
(let ((.def_188 (and .s.5.next .def_187)))
(let ((.def_189 (and .def_46 .def_188)))
(let ((.def_190 (and .def_43 .def_189)))
(let ((.def_191 (and .def_40 .def_190)))
(let ((.def_192 (and .def_37 .def_191)))
(let ((.def_193 (and .def_34 .def_192)))
(let ((.def_169 (and .s.4 .def_168)))
(let ((.def_170 (and .def_23 .def_169)))
(let ((.def_182 (and .def_170 .def_181)))
(let ((.def_183 (not .def_182)))
(let ((.def_194 (or .def_183 .def_193)))
(let ((.def_658 (and .def_194 .def_657)))
(let ((.def_174 (and .s.5.next .def_62)))
(let ((.def_175 (and .def_46 .def_174)))
(let ((.def_176 (and .def_43 .def_175)))
(let ((.def_177 (and .def_40 .def_176)))
(let ((.def_178 (and .def_37 .def_177)))
(let ((.def_179 (and .def_34 .def_178)))
(let ((.def_172 (and .def_170 .def_171)))
(let ((.def_173 (not .def_172)))
(let ((.def_180 (or .def_173 .def_179)))
(let ((.def_659 (and .def_180 .def_658)))
(let ((.def_156 (and .def_50 .def_155)))
(let ((.def_157 (and .s.5.next .def_156)))
(let ((.def_161 (and .def_157 .def_160)))
(let ((.def_162 (and .def_46 .def_161)))
(let ((.def_163 (and .def_40 .def_162)))
(let ((.def_164 (and .def_37 .def_163)))
(let ((.def_165 (and .def_34 .def_164)))
(let ((.def_152 (and .s.5 .def_151)))
(let ((.def_153 (not .def_152)))
(let ((.def_166 (or .def_153 .def_165)))
(let ((.def_660 (and .def_166 .def_659)))
(let ((.def_143 (and .def_46 .def_142)))
(let ((.def_144 (and .def_43 .def_143)))
(let ((.def_145 (and .def_40 .def_144)))
(let ((.def_146 (and .def_37 .def_145)))
(let ((.def_147 (and .def_34 .def_146)))
(let ((.def_137 (and .def_21 .s.5)))
(let ((.def_138 (not .def_137)))
(let ((.def_148 (or .def_138 .def_147)))
(let ((.def_661 (and .def_148 .def_660)))
(let ((.def_124 (and .s.5 .def_123)))
(let ((.def_125 (not .def_124)))
(let ((.def_136 (or .def_125 .def_135)))
(let ((.def_662 (and .def_136 .def_661)))
(let ((.def_114 (and .s.5.next .def_77)))
(let ((.def_113 (= main.l.next main.i)))
(let ((.def_115 (and .def_113 .def_114)))
(let ((.def_116 (and .def_46 .def_115)))
(let ((.def_117 (and .def_43 .def_116)))
(let ((.def_118 (and .def_40 .def_117)))
(let ((.def_119 (and .def_34 .def_118)))
(let ((.def_111 (and .s.5 .def_110)))
(let ((.def_112 (not .def_111)))
(let ((.def_120 (or .def_112 .def_119)))
(let ((.def_663 (and .def_120 .def_662)))
(let ((.def_100 (and .s.5.next .def_99)))
(let ((.def_93 (* (- 1) main.i.next)))
(let ((.def_94 (+ main.i .def_93)))
(let ((.def_95 (= .def_94 1)))
(let ((.def_101 (and .def_95 .def_100)))
(let ((.def_102 (and .def_43 .def_101)))
(let ((.def_103 (and .def_40 .def_102)))
(let ((.def_104 (and .def_37 .def_103)))
(let ((.def_105 (and .def_34 .def_104)))
(let ((.def_89 (and .s.5 .def_88)))
(let ((.def_90 (not .def_89)))
(let ((.def_106 (or .def_90 .def_105)))
(let ((.def_664 (and .def_106 .def_663)))
(let ((.def_79 (and .def_46 .def_78)))
(let ((.def_80 (and .def_43 .def_79)))
(let ((.def_81 (and .def_40 .def_80)))
(let ((.def_82 (and .def_37 .def_81)))
(let ((.def_83 (and .def_34 .def_82)))
(let ((.def_73 (and .s.5 .def_72)))
(let ((.def_74 (not .def_73)))
(let ((.def_84 (or .def_74 .def_83)))
(let ((.def_665 (and .def_84 .def_664)))
(let ((.def_30 (and .s.5 .def_29)))
(let ((.def_31 (not .def_30)))
(let ((.def_69 (or .def_31 .def_68)))
(let ((.def_666 (and .def_69 .def_665)))
.def_666))))))))))))))))))))))))))))))))))))))))))))))))))))))))))))))))))))))))))))))))))))))))))))))))))))))))))))))))))))))))))))))))))))))))))))))))))))))))))))))))))))))))))))))))))))))))))))))))))))))))))))))))))))))))))))))))))))))))))))))))))))))))))))))))))))))))))))))))))))))))))))))))))))))))))))))))))))))))))))))))))))))))))))))))))))))))))))))))))))))))))))))))))))))))))))))))))))))))))))))))))))))))))))))))))))))))))))))))))))))))))))))))))))))))))))))))))))))))))))))))))))))))))))))))))))))))))))))))))))))))))))))))))))))))))))))))))))))))))))))))))))))))))))))))))))))))))))))))))))))))))))))))))))))))))))))))))))))))) (state |.s.1.next| |.s.0.next| |.s.2.next| |.s.3.next| |.s.4.next| |.s.5.next| |n.next| |main.l.next| |main.k.next| |main.j.next| |main.i.next|))))
(assert (forall ((|.s.3| Bool) (|.s.4| Bool) (|.s.2| Bool) (|.s.0| Bool) (|.s.1| Bool) (|.s.0.next| Bool) (|.s.1.next| Bool) (|.s.2.next| Bool) (|.s.3.next| Bool) (|.s.4.next| Bool) (|.s.5.next| Bool) (|main.i.next| Int) (|main.i| Int) (|main.j.next| Int) (|main.j| Int) (|main.k.next| Int) (|main.k| Int) (|main.l.next| Int) (|main.l| Int) (|n.next| Int) (|n| Int) (|.inputVar.0| Int) (|.s.5| Bool)) (=> (state |.s.1| |.s.0| |.s.2| |.s.3| |.s.4| |.s.5| |n| |main.l| |main.k| |main.j| |main.i|) (let ((.def_14 (not .s.2)))
(let ((.def_10 (not .s.1)))
(let ((.def_12 (and .def_10 .s.0)))
(let ((.def_15 (and .def_12 .def_14)))
(let ((.def_258 (and .def_15 .s.3)))
(let ((.def_259 (and .s.4 .def_258)))
(let ((.def_23 (not .s.5)))
(let ((.def_260 (and .def_23 .def_259)))
(let ((.def_261 (not .def_260)))
(let ((.def_25 (not .s.0)))
(let ((.def_26 (and .s.1 .def_25)))
(let ((.def_121 (and .def_14 .def_26)))
(let ((.def_245 (and .s.3 .def_121)))
(let ((.def_246 (and .s.4 .def_245)))
(let ((.def_247 (and .def_23 .def_246)))
(let ((.def_248 (not .def_247)))
(let ((.def_667 (and .def_248 .def_261)))
.def_667))))))))))))))))))))
(check-sat)
